(set-logic QF_NRA)
(set-info :source |Benchmarks generated from hycomp (https://es-static.fbk.eu/tools/hycomp/). BMC instances of non-linear hybrid automata taken from: Alessandro Cimatti, Sergio Mover, Stefano Tonetta, A quantifier-free SMT encoding of non-linear hybrid automata, FMCAD 2012 and Alessandro Cimatti, Sergio Mover, Stefano Tonetta, Quantier-free encoding of invariants for Hybrid Systems, Formal Methods in System Design. This instance solves a BMC problem of depth 1 and uses the encoding obtained with quantifier elimination using redlog encoding. Contacts: Sergio Mover (mover@fbk.eu), Stefano Tonetta (tonettas@fbk.eu), Alessandro Cimatti (cimatti@fbk.eu).|)
(set-info :smt-lib-version 2.0)
(set-info :category "industrial")
(set-info :status unsat)
;; MathSAT API call trace
;; generated on Mon Mar 19 10:48:55 2012
(declare-fun b.counter.3__AT1 () Bool)
(declare-fun b.y__AT0 () Real)
(declare-fun b.event_is_timed__AT0 () Bool)
(declare-fun b.counter.0__AT0 () Bool)
(declare-fun b.counter.1__AT0 () Bool)
(declare-fun b.time__AT1 () Real)
(declare-fun b.counter.3__AT0 () Bool)
(declare-fun b.delta__AT1 () Real)
(declare-fun b.EVENT.0__AT1 () Bool)
(declare-fun b.delta__AT0 () Real)
(declare-fun b.EVENT.1__AT1 () Bool)
(declare-fun b.speed_y__AT1 () Real)
(declare-fun b.event_is_timed__AT1 () Bool)
(declare-fun speed_loss__AT0 () Real)
(declare-fun b.counter.1__AT1 () Bool)
(declare-fun b.counter.2__AT1 () Bool)
(declare-fun b.counter.2__AT0 () Bool)
(declare-fun b.time__AT0 () Real)
(declare-fun b.speed_y__AT0 () Real)
(declare-fun b.EVENT.1__AT0 () Bool)
(declare-fun b.y__AT1 () Real)
(declare-fun b.counter.0__AT1 () Bool)
(declare-fun b.EVENT.0__AT0 () Bool)
(assert (let ((.def_264 (* 49.0 b.delta__AT1)))
(let ((.def_265 (* b.delta__AT1 .def_264)))
(let ((.def_266 (* (- 1.0) .def_265)))
(let ((.def_262 (* 10.0 b.speed_y__AT1)))
(let ((.def_263 (* b.delta__AT1 .def_262)))
(let ((.def_267 (+ .def_263 .def_266)))
(let ((.def_268 (* 10.0 b.y__AT1)))
(let ((.def_270 (+ .def_268 .def_267)))
(let ((.def_271 (<= 0.0 .def_270)))
(let ((.def_298 (not .def_271)))
(let ((.def_282 (* (- 49.0) b.delta__AT1)))
(let ((.def_273 (* 5.0 b.speed_y__AT1)))
(let ((.def_283 (+ .def_273 .def_282)))
(let ((.def_284 (<= 0.0 .def_283)))
(let ((.def_299 (and .def_284 .def_298)))
(let ((.def_294 (<= b.speed_y__AT1 0.0 )))
(let ((.def_248 (<= 0.0 b.y__AT1)))
(let ((.def_297 (or .def_248 .def_294)))
(let ((.def_300 (or .def_297 .def_299)))
(let ((.def_293 (<= b.y__AT1 0.0 )))
(let ((.def_295 (and .def_293 .def_294)))
(let ((.def_288 (<= .def_283 0.0 )))
(let ((.def_289 (not .def_288)))
(let ((.def_286 (= .def_270 0.0 )))
(let ((.def_287 (not .def_286)))
(let ((.def_290 (or .def_287 .def_289)))
(let ((.def_285 (or .def_271 .def_284)))
(let ((.def_291 (and .def_285 .def_290)))
(let ((.def_274 (* b.speed_y__AT1 .def_273)))
(let ((.def_275 (* 98.0 b.y__AT1)))
(let ((.def_277 (+ .def_275 .def_274)))
(let ((.def_280 (<= .def_277 0.0 )))
(let ((.def_281 (not .def_280)))
(let ((.def_292 (or .def_281 .def_291)))
(let ((.def_296 (or .def_292 .def_295)))
(let ((.def_301 (and .def_296 .def_300)))
(let ((.def_278 (<= 0.0 .def_277)))
(let ((.def_279 (not .def_278)))
(let ((.def_302 (or .def_279 .def_301)))
(let ((.def_260 (<= 0.0 b.delta__AT1)))
(let ((.def_261 (not .def_260)))
(let ((.def_272 (or .def_261 .def_271)))
(let ((.def_303 (and .def_272 .def_302)))
(let ((.def_245 (not b.EVENT.0__AT1)))
(let ((.def_243 (not b.EVENT.1__AT1)))
(let ((.def_257 (and .def_243 .def_245)))
(let ((.def_258 (not .def_257)))
(let ((.def_304 (or .def_258 .def_303)))
(let ((.def_28 (not b.counter.0__AT0)))
(let ((.def_252 (or b.counter.1__AT0 .def_28)))
(let ((.def_31 (not b.counter.2__AT0)))
(let ((.def_253 (or .def_31 .def_252)))
(let ((.def_254 (or b.counter.3__AT0 .def_253)))
(let ((.def_56 (<= speed_loss__AT0 (/ 1 2))))
(let ((.def_53 (<= (/ 1 10) speed_loss__AT0)))
(let ((.def_57 (and .def_53 .def_56)))
(let ((.def_249 (and .def_57 .def_248)))
(let ((.def_246 (or .def_243 .def_245)))
(let ((.def_128 (not b.counter.1__AT1)))
(let ((.def_4 (not b.counter.0__AT1)))
(let ((.def_236 (or .def_4 .def_128)))
(let ((.def_240 (or b.counter.3__AT1 .def_236)))
(let ((.def_237 (or b.counter.2__AT1 .def_236)))
(let ((.def_8 (not b.counter.2__AT1)))
(let ((.def_235 (or .def_4 .def_8)))
(let ((.def_238 (and .def_235 .def_237)))
(let ((.def_145 (not b.counter.3__AT1)))
(let ((.def_239 (or .def_145 .def_238)))
(let ((.def_241 (and .def_239 .def_240)))
(let ((.def_247 (and .def_241 .def_246)))
(let ((.def_250 (and .def_247 .def_249)))
(let ((.def_66 (<= 0.0 b.delta__AT0)))
(let ((.def_47 (not b.EVENT.0__AT0)))
(let ((.def_45 (not b.EVENT.1__AT0)))
(let ((.def_63 (and .def_45 .def_47)))
(let ((.def_64 (not .def_63)))
(let ((.def_231 (or .def_64 .def_66)))
(let ((.def_232 (or b.EVENT.1__AT0 .def_231)))
(let ((.def_167 (= b.counter.0__AT1 b.counter.0__AT0)))
(let ((.def_165 (= b.counter.1__AT1 b.counter.1__AT0)))
(let ((.def_163 (= b.counter.2__AT1 b.counter.2__AT0)))
(let ((.def_162 (= b.counter.3__AT1 b.counter.3__AT0)))
(let ((.def_164 (and .def_162 .def_163)))
(let ((.def_166 (and .def_164 .def_165)))
(let ((.def_168 (and .def_166 .def_167)))
(let ((.def_228 (or .def_64 .def_168)))
(let ((.def_229 (or b.EVENT.1__AT0 .def_228)))
(let ((.def_220 (* (- 5.0) b.speed_y__AT1)))
(let ((.def_93 (* (- 49.0) b.delta__AT0)))
(let ((.def_221 (+ .def_93 .def_220)))
(let ((.def_82 (* 5.0 b.speed_y__AT0)))
(let ((.def_222 (+ .def_82 .def_221)))
(let ((.def_223 (= .def_222 0.0 )))
(let ((.def_209 (* b.speed_y__AT0 b.delta__AT0)))
(let ((.def_210 (* 10.0 .def_209)))
(let ((.def_207 (* b.delta__AT0 b.delta__AT0)))
(let ((.def_208 (* (- 49.0) .def_207)))
(let ((.def_211 (+ .def_208 .def_210)))
(let ((.def_213 (* (- 10.0) b.y__AT1)))
(let ((.def_216 (+ .def_213 .def_211)))
(let ((.def_76 (* 10.0 b.y__AT0)))
(let ((.def_217 (+ .def_76 .def_216)))
(let ((.def_218 (= .def_217 0.0 )))
(let ((.def_224 (and .def_218 .def_223)))
(let ((.def_225 (or .def_64 .def_224)))
(let ((.def_173 (= b.y__AT0 b.y__AT1)))
(let ((.def_161 (= b.speed_y__AT0 b.speed_y__AT1)))
(let ((.def_204 (and .def_161 .def_173)))
(let ((.def_201 (= b.delta__AT0 0.0 )))
(let ((.def_202 (and .def_63 .def_201)))
(let ((.def_203 (not .def_202)))
(let ((.def_205 (or .def_203 .def_204)))
(let ((.def_206 (or b.EVENT.1__AT0 .def_205)))
(let ((.def_226 (and .def_206 .def_225)))
(let ((.def_183 (= b.time__AT0 b.time__AT1)))
(let ((.def_195 (and .def_173 .def_183)))
(let ((.def_196 (and .def_161 .def_195)))
(let ((.def_197 (and .def_168 .def_196)))
(let ((.def_198 (or .def_45 .def_197)))
(let ((.def_186 (* (- 1.0) b.time__AT1)))
(let ((.def_189 (+ b.delta__AT0 .def_186)))
(let ((.def_190 (+ b.time__AT0 .def_189)))
(let ((.def_191 (= .def_190 0.0 )))
(let ((.def_192 (or .def_64 .def_191)))
(let ((.def_193 (or b.EVENT.1__AT0 .def_192)))
(let ((.def_184 (or .def_63 .def_183)))
(let ((.def_185 (or b.EVENT.1__AT0 .def_184)))
(let ((.def_194 (and .def_185 .def_193)))
(let ((.def_199 (and .def_194 .def_198)))
(let ((.def_179 (= .def_64 b.event_is_timed__AT1)))
(let ((.def_177 (= b.event_is_timed__AT0 .def_63)))
(let ((.def_180 (and .def_177 .def_179)))
(let ((.def_169 (and .def_161 .def_168)))
(let ((.def_118 (<= 0.0 b.speed_y__AT0)))
(let ((.def_119 (not .def_118)))
(let ((.def_117 (= b.y__AT0 0.0 )))
(let ((.def_120 (and .def_117 .def_119)))
(let ((.def_170 (or .def_120 .def_169)))
(let ((.def_137 (or .def_4 b.counter.0__AT0)))
(let ((.def_136 (or b.counter.0__AT1 .def_28)))
(let ((.def_138 (and .def_136 .def_137)))
(let ((.def_139 (and .def_128 .def_138)))
(let ((.def_140 (or b.counter.1__AT0 .def_139)))
(let ((.def_26 (not b.counter.1__AT0)))
(let ((.def_135 (or b.counter.1__AT1 .def_26)))
(let ((.def_141 (and .def_135 .def_140)))
(let ((.def_153 (and .def_8 .def_141)))
(let ((.def_154 (or b.counter.2__AT0 .def_153)))
(let ((.def_148 (and .def_28 .def_128)))
(let ((.def_149 (or b.counter.1__AT0 .def_148)))
(let ((.def_150 (and .def_135 .def_149)))
(let ((.def_151 (and b.counter.2__AT1 .def_150)))
(let ((.def_152 (or .def_31 .def_151)))
(let ((.def_155 (and .def_152 .def_154)))
(let ((.def_156 (and b.counter.3__AT1 .def_155)))
(let ((.def_157 (or b.counter.3__AT0 .def_156)))
(let ((.def_142 (and b.counter.2__AT1 .def_141)))
(let ((.def_143 (or b.counter.2__AT0 .def_142)))
(let ((.def_131 (or b.counter.1__AT1 b.counter.1__AT0)))
(let ((.def_129 (and b.counter.0__AT1 .def_128)))
(let ((.def_130 (or .def_26 .def_129)))
(let ((.def_132 (and .def_130 .def_131)))
(let ((.def_133 (and .def_8 .def_132)))
(let ((.def_134 (or .def_31 .def_133)))
(let ((.def_144 (and .def_134 .def_143)))
(let ((.def_146 (and .def_144 .def_145)))
(let ((.def_34 (not b.counter.3__AT0)))
(let ((.def_147 (or .def_34 .def_146)))
(let ((.def_158 (and .def_147 .def_157)))
(let ((.def_123 (* (- 1.0) speed_loss__AT0)))
(let ((.def_124 (+ 1.0 .def_123)))
(let ((.def_122 (* (- 1.0) b.speed_y__AT0)))
(let ((.def_125 (* .def_122 .def_124)))
(let ((.def_127 (= .def_125 b.speed_y__AT1)))
(let ((.def_159 (and .def_127 .def_158)))
(let ((.def_121 (not .def_120)))
(let ((.def_160 (or .def_121 .def_159)))
(let ((.def_171 (and .def_160 .def_170)))
(let ((.def_174 (and .def_171 .def_173)))
(let ((.def_175 (or .def_63 .def_174)))
(let ((.def_176 (or b.EVENT.1__AT0 .def_175)))
(let ((.def_181 (and .def_176 .def_180)))
(let ((.def_200 (and .def_181 .def_199)))
(let ((.def_227 (and .def_200 .def_226)))
(let ((.def_230 (and .def_227 .def_229)))
(let ((.def_233 (and .def_230 .def_232)))
(let ((.def_234 (and .def_45 .def_233)))
(let ((.def_251 (and .def_234 .def_250)))
(let ((.def_255 (and .def_251 .def_254)))
(let ((.def_71 (* 49.0 b.delta__AT0)))
(let ((.def_72 (* b.delta__AT0 .def_71)))
(let ((.def_74 (* (- 1.0) .def_72)))
(let ((.def_68 (* 10.0 b.speed_y__AT0)))
(let ((.def_69 (* b.delta__AT0 .def_68)))
(let ((.def_75 (+ .def_69 .def_74)))
(let ((.def_78 (+ .def_76 .def_75)))
(let ((.def_79 (<= 0.0 .def_78)))
(let ((.def_109 (not .def_79)))
(let ((.def_94 (+ .def_82 .def_93)))
(let ((.def_95 (<= 0.0 .def_94)))
(let ((.def_110 (and .def_95 .def_109)))
(let ((.def_105 (<= b.speed_y__AT0 0.0 )))
(let ((.def_58 (<= 0.0 b.y__AT0)))
(let ((.def_108 (or .def_58 .def_105)))
(let ((.def_111 (or .def_108 .def_110)))
(let ((.def_104 (<= b.y__AT0 0.0 )))
(let ((.def_106 (and .def_104 .def_105)))
(let ((.def_99 (<= .def_94 0.0 )))
(let ((.def_100 (not .def_99)))
(let ((.def_97 (= .def_78 0.0 )))
(let ((.def_98 (not .def_97)))
(let ((.def_101 (or .def_98 .def_100)))
(let ((.def_96 (or .def_79 .def_95)))
(let ((.def_102 (and .def_96 .def_101)))
(let ((.def_83 (* b.speed_y__AT0 .def_82)))
(let ((.def_85 (* 98.0 b.y__AT0)))
(let ((.def_87 (+ .def_85 .def_83)))
(let ((.def_90 (<= .def_87 0.0 )))
(let ((.def_91 (not .def_90)))
(let ((.def_103 (or .def_91 .def_102)))
(let ((.def_107 (or .def_103 .def_106)))
(let ((.def_112 (and .def_107 .def_111)))
(let ((.def_88 (<= 0.0 .def_87)))
(let ((.def_89 (not .def_88)))
(let ((.def_113 (or .def_89 .def_112)))
(let ((.def_67 (not .def_66)))
(let ((.def_80 (or .def_67 .def_79)))
(let ((.def_114 (and .def_80 .def_113)))
(let ((.def_115 (or .def_64 .def_114)))
(let ((.def_59 (and .def_57 .def_58)))
(let ((.def_48 (or .def_45 .def_47)))
(let ((.def_38 (or .def_26 .def_28)))
(let ((.def_42 (or b.counter.3__AT0 .def_38)))
(let ((.def_39 (or b.counter.2__AT0 .def_38)))
(let ((.def_37 (or .def_28 .def_31)))
(let ((.def_40 (and .def_37 .def_39)))
(let ((.def_41 (or .def_34 .def_40)))
(let ((.def_43 (and .def_41 .def_42)))
(let ((.def_49 (and .def_43 .def_48)))
(let ((.def_60 (and .def_49 .def_59)))
(let ((.def_29 (and .def_26 .def_28)))
(let ((.def_32 (and .def_29 .def_31)))
(let ((.def_35 (and .def_32 .def_34)))
(let ((.def_23 (= b.speed_y__AT0 0.0 )))
(let ((.def_20 (= b.y__AT0 10.0 )))
(let ((.def_15 (= b.time__AT0 0.0 )))
(let ((.def_17 (and .def_15 b.event_is_timed__AT0)))
(let ((.def_21 (and .def_17 .def_20)))
(let ((.def_24 (and .def_21 .def_23)))
(let ((.def_36 (and .def_24 .def_35)))
(let ((.def_61 (and .def_36 .def_60)))
(let ((.def_6 (or .def_4 b.counter.1__AT1)))
(let ((.def_9 (or .def_6 .def_8)))
(let ((.def_11 (or .def_9 b.counter.3__AT1)))
(let ((.def_12 (not .def_11)))
(let ((.def_62 (and .def_12 .def_61)))
(let ((.def_116 (and .def_62 .def_115)))
(let ((.def_256 (and .def_116 .def_255)))
(let ((.def_305 (and .def_256 .def_304)))
.def_305))))))))))))))))))))))))))))))))))))))))))))))))))))))))))))))))))))))))))))))))))))))))))))))))))))))))))))))))))))))))))))))))))))))))))))))))))))))))))))))))))))))))))))))))))))))))))))))))))))))))))))))))))))))))))))))))))))))))))))))))))))))))))))))))))))
(check-sat)
(exit)
